104000
14
26
46
23
37
52
64
35
95
2
75
86
82
66
76
42
55
80
39
11
73
13
47
34
40
83
89
36
77
38
20 22
98 54
29 88
10 7
67 61
65 84
24 93
16 92
56 50
74 32
99 5
19 85
3 94
28 63
1 96
72 90
60 25
62 18
48 53
21 68
58 44
97 27
6 9
91 41
30 59
51 57
79 17
43 69
70 87
12 15
4 33
45 78
100 31
71 49
81 8
